452
600
6
452
0 22
0 323
3 158
3 437
5 282
5 288
6 175
8 62
8 212
8 372
9 276
10 22
13 314
14 108
15 447
16 144
16 147
16 328
16 331
18 38
18 411
19 221
20 59
20 61
20 288
20 434
21 34
21 156
22 163
23 321
24 39
27 125
27 202
28 172
29 51
29 300
30 34
30 318
31 394
34 237
34 282
34 382
35 356
35 417
35 448
37 279
38 314
39 131
41 163
42 208
46 178
48 92
48 137
48 270
48 329
49 180
50 123
50 218
52 115
53 65
54 69
55 81
55 152
55 353
56 239
57 71
57 254
57 381
58 144
58 317
59 63
61 422
62 268
64 182
64 340
64 356
64 384
68 350
69 309
71 204
73 327
74 158
76 157
77 133
78 165
78 412
80 259
81 195
82 172
83 221
84 140
85 169
85 228
86 389
87 248
89 237
91 404
94 117
94 261
95 137
96 128
96 154
96 176
96 377
99 148
99 266
99 379
99 446
100 210
100 219
100 371
100 381
101 153
102 347
103 397
104 287
105 413
106 118
106 213
107 325
107 394
108 225
108 238
108 414
110 127
111 382
112 376
112 421
113 137
114 391
115 252
116 302
116 439
117 190
118 318
119 411
120 276
122 238
122 323
122 356
123 125
125 289
126 208
126 299
127 280
127 291
127 336
128 218
128 263
128 440
129 345
130 192
130 253
130 405
131 192
131 227
131 315
131 422
132 373
132 403
133 138
133 224
133 232
135 358
137 138
138 176
138 276
141 359
142 445
143 189
143 384
147 361
150 425
151 237
152 233
153 326
156 426
157 182
158 264
158 329
158 367
159 191
159 291
159 320
159 339
161 194
164 408
166 426
167 179
167 182
168 359
171 216
172 365
176 238
177 375
178 249
181 186
181 217
181 356
184 277
184 364
185 395
185 398
185 406
190 239
190 267
190 411
191 267
191 406
195 373
195 445
196 284
199 272
201 282
201 299
203 264
207 308
210 327
214 236
215 330
215 376
217 303
217 370
221 266
222 258
222 344
222 366
223 297
225 268
226 400
234 246
236 325
238 317
238 382
241 450
247 306
248 375
251 425
256 409
257 388
259 389
261 336
261 447
262 366
267 325
270 341
272 288
273 277
273 359
279 283
279 328
279 417
281 372
284 319
284 440
287 304
287 423
287 435
289 413
290 374
293 375
294 436
295 407
299 427
299 443
301 310
313 409
315 323
316 361
319 355
322 438
324 346
324 405
325 382
327 356
330 349
332 336
333 356
334 411
335 386
339 406
344 358
351 371
351 417
354 419
355 423
356 357
366 426
369 409
386 435
394 427
404 450
407 421
429 448
431 436
439 444
0
1
2
3
4
5
6
7
8
9
10
11
12
13
14
15
16
17
18
19
20
21
22
23
24
25
26
27
28
29
30
31
32
33
34
35
36
37
38
39
40
41
42
43
44
45
46
47
48
49
50
51
52
53
54
55
56
57
58
59
60
61
62
63
64
65
66
67
68
69
70
71
72
73
74
75
76
77
78
79
80
81
82
83
84
85
86
87
88
89
90
91
92
93
94
95
96
97
98
99
100
101
102
103
104
105
106
107
108
109
110
111
112
113
114
115
116
117
118
119
120
121
122
123
124
125
126
127
128
129
130
131
132
133
134
135
136
137
138
139
140
141
142
143
144
145
146
147
148
149
150
151
152
153
154
155
156
157
158
159
160
161
162
163
164
165
166
167
168
169
170
171
172
173
174
175
176
177
178
179
180
181
182
183
184
185
186
187
188
189
190
191
192
193
194
195
196
197
198
199
200
201
202
203
204
205
206
207
208
209
210
211
212
213
214
215
216
217
218
219
220
221
222
223
224
225
226
227
228
229
230
231
232
233
234
235
236
237
238
239
240
241
242
243
244
245
246
247
248
249
250
251
252
253
254
255
256
257
258
259
260
261
262
263
264
265
266
267
268
269
270
271
272
273
274
275
276
277
278
279
280
281
282
283
284
285
286
287
288
289
290
291
292
293
294
295
296
297
298
299
300
301
302
303
304
305
306
307
308
309
310
311
312
313
314
315
316
317
318
319
320
321
322
323
324
325
326
327
328
329
330
331
332
333
334
335
336
337
338
339
340
341
342
343
344
345
346
347
348
349
350
351
352
353
354
355
356
357
358
359
360
361
362
363
364
365
366
367
368
369
370
371
372
373
374
375
376
377
378
379
380
381
382
383
384
385
386
387
388
389
390
391
392
393
394
395
396
397
398
399
400
401
402
403
404
405
406
407
408
409
410
411
412
413
414
415
416
417
418
419
420
421
422
423
424
425
426
427
428
429
430
431
432
433
434
435
436
437
438
439
440
441
442
443
444
445
446
447
448
449
450
451
